Minimize
	value: tt

Subject to
tt + 1000 s_1_1 > 0.0
tt - t_1_1 - 1000.745848 s_1_1  + 0.745848 s_1_7  > -992.917233
tt + 1000 s_2_1 > 0.0
tt - t_2_1 - 1000.658575 s_2_1  + 0.658575 s_2_7  > -994.072794
tt + 1000 s_1_2 > 0.0
tt - t_1_2 - 1000.745848 s_1_2  + 0.745848 s_1_8  > -991.825533
tt + 1000 s_2_2 > 0.0
tt - t_2_2 - 1000.658575 s_2_2  + 0.658575 s_2_8  > -993.825071
tt + 1000 s_1_3 > 0.0
tt - t_1_3 - 1000.745848 s_1_3  + 0.745848 s_1_8  > -987.483100
tt + 1000 s_2_3 > 0.0
tt - t_2_3 - 1000.658575 s_2_3  + 0.658575 s_2_8  > -990.914263
tt + 1000 s_1_4 > 0.0
tt - t_1_4 - 1001.491697 s_1_4  + 0.745848 s_1_3  + 0.745848 s_1_8  > -993.663100
tt + 1000 s_2_4 > 0.0
tt - t_2_4 - 1001.317151 s_2_4  + 0.658575 s_2_3  + 0.658575 s_2_8  > -994.234658
tt + 1000 s_1_5 > 0.0
tt - t_1_5 - 1001.491697 s_1_5  + 0.745848 s_1_7  + 0.745848 s_1_8  > -994.022775
tt + 1000 s_2_5 > 0.0
tt - t_2_5 - 1001.317151 s_2_5  + 0.658575 s_2_7  + 0.658575 s_2_8  > -995.111811
tt + 1000 s_1_6 > 0.0
tt - t_1_6 - 1003.729242 s_1_6  + 0.745848 s_1_3  + 0.745848 s_1_1  + 0.745848 s_1_5  + 0.745848 s_1_2  + 0.745848 s_1_4  > -999.144444
tt + 1000 s_2_6 > 0.0
tt - t_2_6 - 1003.292876 s_2_6  + 0.658575 s_2_3  + 0.658575 s_2_1  + 0.658575 s_2_5  + 0.658575 s_2_2  + 0.658575 s_2_4  > -988.880900
tt + 1000 s_1_7 > 0.0
tt - t_1_7 - 1000.000000 s_1_7  > -983.048700
tt + 1000 s_2_7 > 0.0
tt - t_2_7 - 1000.000000 s_2_7  > -991.523825
tt + 1000 s_1_8 > 0.0
tt - t_1_8 - 1000.000000 s_1_8  > -982.993089
tt + 1000 s_2_8 > 0.0
tt - t_2_8 - 1000.000000 s_2_8  > -992.162100
s_1_1 + s_2_1 = 1
s_1_2 + s_2_2 = 1
s_1_3 + s_2_3 = 1
s_1_4 + s_2_4 = 1
s_1_5 + s_2_5 = 1
s_1_6 + s_2_6 = 1
s_1_7 + s_2_7 = 1
s_1_8 + s_2_8 = 1
s_1_1 + s_1_2 + 1000 r_1_1_2 >= 2
- s_1_1 - s_1_2 - 1000 r_1_1_2 >= -1001
t_1_1 - t_1_2 - 1000.000000 u_1_1_2 - 0.745848 s_1_2  + 0.745848 s_1_8  + 2000.000000 r_1_1_2 > -991.825533
s_2_1 + s_2_2 + 1000 r_2_1_2 >= 2
- s_2_1 - s_2_2 - 1000 r_2_1_2 >= -1001
t_2_1 - t_2_2 - 1000.000000 u_2_1_2 - 0.658575 s_2_2  + 0.658575 s_2_8  + 2000.000000 r_2_1_2 > -993.825071
s_1_1 + s_1_3 + 1000 r_1_1_3 >= 2
- s_1_1 - s_1_3 - 1000 r_1_1_3 >= -1001
t_1_1 - t_1_3 - 1000.000000 u_1_1_3 - 0.745848 s_1_3  + 0.745848 s_1_8  + 2000.000000 r_1_1_3 > -987.483100
s_2_1 + s_2_3 + 1000 r_2_1_3 >= 2
- s_2_1 - s_2_3 - 1000 r_2_1_3 >= -1001
t_2_1 - t_2_3 - 1000.000000 u_2_1_3 - 0.658575 s_2_3  + 0.658575 s_2_8  + 2000.000000 r_2_1_3 > -990.914263
s_1_1 + s_1_4 + 1000 r_1_1_4 >= 2
- s_1_1 - s_1_4 - 1000 r_1_1_4 >= -1001
t_1_1 - t_1_4 - 1000.000000 u_1_1_4 - 1.491697 s_1_4  + 0.745848 s_1_3  + 0.745848 s_1_8  + 2000.000000 r_1_1_4 > -993.663100
s_2_1 + s_2_4 + 1000 r_2_1_4 >= 2
- s_2_1 - s_2_4 - 1000 r_2_1_4 >= -1001
t_2_1 - t_2_4 - 1000.000000 u_2_1_4 - 1.317151 s_2_4  + 0.658575 s_2_3  + 0.658575 s_2_8  + 2000.000000 r_2_1_4 > -994.234658
s_1_1 + s_1_5 + 1000 r_1_1_5 >= 2
- s_1_1 - s_1_5 - 1000 r_1_1_5 >= -1001
t_1_1 - t_1_5 - 1000.000000 u_1_1_5 - 1.491697 s_1_5  + 0.745848 s_1_7  + 0.745848 s_1_8  + 2000.000000 r_1_1_5 > -994.022775
s_2_1 + s_2_5 + 1000 r_2_1_5 >= 2
- s_2_1 - s_2_5 - 1000 r_2_1_5 >= -1001
t_2_1 - t_2_5 - 1000.000000 u_2_1_5 - 1.317151 s_2_5  + 0.658575 s_2_7  + 0.658575 s_2_8  + 2000.000000 r_2_1_5 > -995.111811
t_1_6 - t_1_1 - 1000.745848 s_1_1  + 0.745848 s_1_7  > -992.917233
t_1_6 - t_2_1 - 1000.658575 s_2_1  + 0.658575 s_2_7  > -994.072794
t_2_6 - t_1_1 - 1000.745848 s_1_1  + 0.745848 s_1_7  > -992.917233
t_2_6 - t_2_1 - 1000.658575 s_2_1  + 0.658575 s_2_7  > -994.072794
t_1_1 - t_1_7 - 1000.000000 s_1_7  > -983.048700
t_1_1 - t_2_7 - 1000.000000 s_2_7  > -991.523825
t_2_1 - t_1_7 - 1000.000000 s_1_7  > -983.048700
t_2_1 - t_2_7 - 1000.000000 s_2_7  > -991.523825
s_1_1 + s_1_8 + 1000 r_1_1_8 >= 2
- s_1_1 - s_1_8 - 1000 r_1_1_8 >= -1001
t_1_1 - t_1_8 - 1000.000000 u_1_1_8 - 0.000000 s_1_8  + 2000.000000 r_1_1_8 > -982.993089
s_2_1 + s_2_8 + 1000 r_2_1_8 >= 2
- s_2_1 - s_2_8 - 1000 r_2_1_8 >= -1001
t_2_1 - t_2_8 - 1000.000000 u_2_1_8 - 0.000000 s_2_8  + 2000.000000 r_2_1_8 > -992.162100
s_1_2 + s_1_1 + 1000 r_1_1_2 >= 2
- s_1_2 - s_1_1 - 1000 r_1_1_2 >= -1001
t_1_2 - t_1_1 + 1000.000000 u_1_1_2 - 0.745848 s_1_1  + 0.745848 s_1_7  + 2000.000000 r_1_1_2 > 7.082767
s_2_2 + s_2_1 + 1000 r_2_1_2 >= 2
- s_2_2 - s_2_1 - 1000 r_2_1_2 >= -1001
t_2_2 - t_2_1 + 1000.000000 u_2_1_2 - 0.658575 s_2_1  + 0.658575 s_2_7  + 2000.000000 r_2_1_2 > 5.927206
s_1_2 + s_1_3 + 1000 r_1_2_3 >= 2
- s_1_2 - s_1_3 - 1000 r_1_2_3 >= -1001
t_1_2 - t_1_3 - 1000.000000 u_1_2_3 - 0.745848 s_1_3  + 0.745848 s_1_8  + 2000.000000 r_1_2_3 > -987.483100
s_2_2 + s_2_3 + 1000 r_2_2_3 >= 2
- s_2_2 - s_2_3 - 1000 r_2_2_3 >= -1001
t_2_2 - t_2_3 - 1000.000000 u_2_2_3 - 0.658575 s_2_3  + 0.658575 s_2_8  + 2000.000000 r_2_2_3 > -990.914263
s_1_2 + s_1_4 + 1000 r_1_2_4 >= 2
- s_1_2 - s_1_4 - 1000 r_1_2_4 >= -1001
t_1_2 - t_1_4 - 1000.000000 u_1_2_4 - 1.491697 s_1_4  + 0.745848 s_1_3  + 0.745848 s_1_8  + 2000.000000 r_1_2_4 > -993.663100
s_2_2 + s_2_4 + 1000 r_2_2_4 >= 2
- s_2_2 - s_2_4 - 1000 r_2_2_4 >= -1001
t_2_2 - t_2_4 - 1000.000000 u_2_2_4 - 1.317151 s_2_4  + 0.658575 s_2_3  + 0.658575 s_2_8  + 2000.000000 r_2_2_4 > -994.234658
s_1_2 + s_1_5 + 1000 r_1_2_5 >= 2
- s_1_2 - s_1_5 - 1000 r_1_2_5 >= -1001
t_1_2 - t_1_5 - 1000.000000 u_1_2_5 - 1.491697 s_1_5  + 0.745848 s_1_7  + 0.745848 s_1_8  + 2000.000000 r_1_2_5 > -994.022775
s_2_2 + s_2_5 + 1000 r_2_2_5 >= 2
- s_2_2 - s_2_5 - 1000 r_2_2_5 >= -1001
t_2_2 - t_2_5 - 1000.000000 u_2_2_5 - 1.317151 s_2_5  + 0.658575 s_2_7  + 0.658575 s_2_8  + 2000.000000 r_2_2_5 > -995.111811
t_1_6 - t_1_2 - 1000.745848 s_1_2  + 0.745848 s_1_8  > -991.825533
t_1_6 - t_2_2 - 1000.658575 s_2_2  + 0.658575 s_2_8  > -993.825071
t_2_6 - t_1_2 - 1000.745848 s_1_2  + 0.745848 s_1_8  > -991.825533
t_2_6 - t_2_2 - 1000.658575 s_2_2  + 0.658575 s_2_8  > -993.825071
s_1_2 + s_1_7 + 1000 r_1_2_7 >= 2
- s_1_2 - s_1_7 - 1000 r_1_2_7 >= -1001
t_1_2 - t_1_7 - 1000.000000 u_1_2_7 - 0.000000 s_1_7  + 2000.000000 r_1_2_7 > -983.048700
s_2_2 + s_2_7 + 1000 r_2_2_7 >= 2
- s_2_2 - s_2_7 - 1000 r_2_2_7 >= -1001
t_2_2 - t_2_7 - 1000.000000 u_2_2_7 - 0.000000 s_2_7  + 2000.000000 r_2_2_7 > -991.523825
t_1_2 - t_1_8 - 1000.000000 s_1_8  > -982.993089
t_1_2 - t_2_8 - 1000.000000 s_2_8  > -992.162100
t_2_2 - t_1_8 - 1000.000000 s_1_8  > -982.993089
t_2_2 - t_2_8 - 1000.000000 s_2_8  > -992.162100
s_1_3 + s_1_1 + 1000 r_1_1_3 >= 2
- s_1_3 - s_1_1 - 1000 r_1_1_3 >= -1001
t_1_3 - t_1_1 + 1000.000000 u_1_1_3 - 0.745848 s_1_1  + 0.745848 s_1_7  + 2000.000000 r_1_1_3 > 7.082767
s_2_3 + s_2_1 + 1000 r_2_1_3 >= 2
- s_2_3 - s_2_1 - 1000 r_2_1_3 >= -1001
t_2_3 - t_2_1 + 1000.000000 u_2_1_3 - 0.658575 s_2_1  + 0.658575 s_2_7  + 2000.000000 r_2_1_3 > 5.927206
s_1_3 + s_1_2 + 1000 r_1_2_3 >= 2
- s_1_3 - s_1_2 - 1000 r_1_2_3 >= -1001
t_1_3 - t_1_2 + 1000.000000 u_1_2_3 - 0.745848 s_1_2  + 0.745848 s_1_8  + 2000.000000 r_1_2_3 > 8.174467
s_2_3 + s_2_2 + 1000 r_2_2_3 >= 2
- s_2_3 - s_2_2 - 1000 r_2_2_3 >= -1001
t_2_3 - t_2_2 + 1000.000000 u_2_2_3 - 0.658575 s_2_2  + 0.658575 s_2_8  + 2000.000000 r_2_2_3 > 6.174929
t_1_4 - t_1_3 - 1000.745848 s_1_3  + 0.745848 s_1_8  > -987.483100
t_1_4 - t_2_3 - 1000.658575 s_2_3  + 0.658575 s_2_8  > -990.914263
t_2_4 - t_1_3 - 1000.745848 s_1_3  + 0.745848 s_1_8  > -987.483100
t_2_4 - t_2_3 - 1000.658575 s_2_3  + 0.658575 s_2_8  > -990.914263
s_1_3 + s_1_5 + 1000 r_1_3_5 >= 2
- s_1_3 - s_1_5 - 1000 r_1_3_5 >= -1001
t_1_3 - t_1_5 - 1000.000000 u_1_3_5 - 1.491697 s_1_5  + 0.745848 s_1_7  + 0.745848 s_1_8  + 2000.000000 r_1_3_5 > -994.022775
s_2_3 + s_2_5 + 1000 r_2_3_5 >= 2
- s_2_3 - s_2_5 - 1000 r_2_3_5 >= -1001
t_2_3 - t_2_5 - 1000.000000 u_2_3_5 - 1.317151 s_2_5  + 0.658575 s_2_7  + 0.658575 s_2_8  + 2000.000000 r_2_3_5 > -995.111811
t_1_6 - t_1_3 - 1000.745848 s_1_3  + 0.745848 s_1_8  > -987.483100
t_1_6 - t_2_3 - 1000.658575 s_2_3  + 0.658575 s_2_8  > -990.914263
t_2_6 - t_1_3 - 1000.745848 s_1_3  + 0.745848 s_1_8  > -987.483100
t_2_6 - t_2_3 - 1000.658575 s_2_3  + 0.658575 s_2_8  > -990.914263
s_1_3 + s_1_7 + 1000 r_1_3_7 >= 2
- s_1_3 - s_1_7 - 1000 r_1_3_7 >= -1001
t_1_3 - t_1_7 - 1000.000000 u_1_3_7 - 0.000000 s_1_7  + 2000.000000 r_1_3_7 > -983.048700
s_2_3 + s_2_7 + 1000 r_2_3_7 >= 2
- s_2_3 - s_2_7 - 1000 r_2_3_7 >= -1001
t_2_3 - t_2_7 - 1000.000000 u_2_3_7 - 0.000000 s_2_7  + 2000.000000 r_2_3_7 > -991.523825
t_1_3 - t_1_8 - 1000.000000 s_1_8  > -982.993089
t_1_3 - t_2_8 - 1000.000000 s_2_8  > -992.162100
t_2_3 - t_1_8 - 1000.000000 s_1_8  > -982.993089
t_2_3 - t_2_8 - 1000.000000 s_2_8  > -992.162100
s_1_4 + s_1_1 + 1000 r_1_1_4 >= 2
- s_1_4 - s_1_1 - 1000 r_1_1_4 >= -1001
t_1_4 - t_1_1 + 1000.000000 u_1_1_4 - 0.745848 s_1_1  + 0.745848 s_1_7  + 2000.000000 r_1_1_4 > 7.082767
s_2_4 + s_2_1 + 1000 r_2_1_4 >= 2
- s_2_4 - s_2_1 - 1000 r_2_1_4 >= -1001
t_2_4 - t_2_1 + 1000.000000 u_2_1_4 - 0.658575 s_2_1  + 0.658575 s_2_7  + 2000.000000 r_2_1_4 > 5.927206
s_1_4 + s_1_2 + 1000 r_1_2_4 >= 2
- s_1_4 - s_1_2 - 1000 r_1_2_4 >= -1001
t_1_4 - t_1_2 + 1000.000000 u_1_2_4 - 0.745848 s_1_2  + 0.745848 s_1_8  + 2000.000000 r_1_2_4 > 8.174467
s_2_4 + s_2_2 + 1000 r_2_2_4 >= 2
- s_2_4 - s_2_2 - 1000 r_2_2_4 >= -1001
t_2_4 - t_2_2 + 1000.000000 u_2_2_4 - 0.658575 s_2_2  + 0.658575 s_2_8  + 2000.000000 r_2_2_4 > 6.174929
s_1_4 + s_1_5 + 1000 r_1_4_5 >= 2
- s_1_4 - s_1_5 - 1000 r_1_4_5 >= -1001
t_1_4 - t_1_5 - 1000.000000 u_1_4_5 - 1.491697 s_1_5  + 0.745848 s_1_7  + 0.745848 s_1_8  + 2000.000000 r_1_4_5 > -994.022775
s_2_4 + s_2_5 + 1000 r_2_4_5 >= 2
- s_2_4 - s_2_5 - 1000 r_2_4_5 >= -1001
t_2_4 - t_2_5 - 1000.000000 u_2_4_5 - 1.317151 s_2_5  + 0.658575 s_2_7  + 0.658575 s_2_8  + 2000.000000 r_2_4_5 > -995.111811
t_1_6 - t_1_4 - 1001.491697 s_1_4  + 0.745848 s_1_3  + 0.745848 s_1_8  > -993.663100
t_1_6 - t_2_4 - 1001.317151 s_2_4  + 0.658575 s_2_3  + 0.658575 s_2_8  > -994.234658
t_2_6 - t_1_4 - 1001.491697 s_1_4  + 0.745848 s_1_3  + 0.745848 s_1_8  > -993.663100
t_2_6 - t_2_4 - 1001.317151 s_2_4  + 0.658575 s_2_3  + 0.658575 s_2_8  > -994.234658
s_1_4 + s_1_7 + 1000 r_1_4_7 >= 2
- s_1_4 - s_1_7 - 1000 r_1_4_7 >= -1001
t_1_4 - t_1_7 - 1000.000000 u_1_4_7 - 0.000000 s_1_7  + 2000.000000 r_1_4_7 > -983.048700
s_2_4 + s_2_7 + 1000 r_2_4_7 >= 2
- s_2_4 - s_2_7 - 1000 r_2_4_7 >= -1001
t_2_4 - t_2_7 - 1000.000000 u_2_4_7 - 0.000000 s_2_7  + 2000.000000 r_2_4_7 > -991.523825
t_1_4 - t_1_8 - 1000.000000 s_1_8  > -982.993089
t_1_4 - t_2_8 - 1000.000000 s_2_8  > -992.162100
t_2_4 - t_1_8 - 1000.000000 s_1_8  > -982.993089
t_2_4 - t_2_8 - 1000.000000 s_2_8  > -992.162100
s_1_5 + s_1_1 + 1000 r_1_1_5 >= 2
- s_1_5 - s_1_1 - 1000 r_1_1_5 >= -1001
t_1_5 - t_1_1 + 1000.000000 u_1_1_5 - 0.745848 s_1_1  + 0.745848 s_1_7  + 2000.000000 r_1_1_5 > 7.082767
s_2_5 + s_2_1 + 1000 r_2_1_5 >= 2
- s_2_5 - s_2_1 - 1000 r_2_1_5 >= -1001
t_2_5 - t_2_1 + 1000.000000 u_2_1_5 - 0.658575 s_2_1  + 0.658575 s_2_7  + 2000.000000 r_2_1_5 > 5.927206
s_1_5 + s_1_2 + 1000 r_1_2_5 >= 2
- s_1_5 - s_1_2 - 1000 r_1_2_5 >= -1001
t_1_5 - t_1_2 + 1000.000000 u_1_2_5 - 0.745848 s_1_2  + 0.745848 s_1_8  + 2000.000000 r_1_2_5 > 8.174467
s_2_5 + s_2_2 + 1000 r_2_2_5 >= 2
- s_2_5 - s_2_2 - 1000 r_2_2_5 >= -1001
t_2_5 - t_2_2 + 1000.000000 u_2_2_5 - 0.658575 s_2_2  + 0.658575 s_2_8  + 2000.000000 r_2_2_5 > 6.174929
s_1_5 + s_1_3 + 1000 r_1_3_5 >= 2
- s_1_5 - s_1_3 - 1000 r_1_3_5 >= -1001
t_1_5 - t_1_3 + 1000.000000 u_1_3_5 - 0.745848 s_1_3  + 0.745848 s_1_8  + 2000.000000 r_1_3_5 > 12.516900
s_2_5 + s_2_3 + 1000 r_2_3_5 >= 2
- s_2_5 - s_2_3 - 1000 r_2_3_5 >= -1001
t_2_5 - t_2_3 + 1000.000000 u_2_3_5 - 0.658575 s_2_3  + 0.658575 s_2_8  + 2000.000000 r_2_3_5 > 9.085737
s_1_5 + s_1_4 + 1000 r_1_4_5 >= 2
- s_1_5 - s_1_4 - 1000 r_1_4_5 >= -1001
t_1_5 - t_1_4 + 1000.000000 u_1_4_5 - 1.491697 s_1_4  + 0.745848 s_1_3  + 0.745848 s_1_8  + 2000.000000 r_1_4_5 > 6.336900
s_2_5 + s_2_4 + 1000 r_2_4_5 >= 2
- s_2_5 - s_2_4 - 1000 r_2_4_5 >= -1001
t_2_5 - t_2_4 + 1000.000000 u_2_4_5 - 1.317151 s_2_4  + 0.658575 s_2_3  + 0.658575 s_2_8  + 2000.000000 r_2_4_5 > 5.765342
t_1_6 - t_1_5 - 1001.491697 s_1_5  + 0.745848 s_1_7  + 0.745848 s_1_8  > -994.022775
t_1_6 - t_2_5 - 1001.317151 s_2_5  + 0.658575 s_2_7  + 0.658575 s_2_8  > -995.111811
t_2_6 - t_1_5 - 1001.491697 s_1_5  + 0.745848 s_1_7  + 0.745848 s_1_8  > -994.022775
t_2_6 - t_2_5 - 1001.317151 s_2_5  + 0.658575 s_2_7  + 0.658575 s_2_8  > -995.111811
t_1_5 - t_1_7 - 1000.000000 s_1_7  > -983.048700
t_1_5 - t_2_7 - 1000.000000 s_2_7  > -991.523825
t_2_5 - t_1_7 - 1000.000000 s_1_7  > -983.048700
t_2_5 - t_2_7 - 1000.000000 s_2_7  > -991.523825
t_1_5 - t_1_8 - 1000.000000 s_1_8  > -982.993089
t_1_5 - t_2_8 - 1000.000000 s_2_8  > -992.162100
t_2_5 - t_1_8 - 1000.000000 s_1_8  > -982.993089
t_2_5 - t_2_8 - 1000.000000 s_2_8  > -992.162100
s_1_7 + s_1_2 + 1000 r_1_2_7 >= 2
- s_1_7 - s_1_2 - 1000 r_1_2_7 >= -1001
t_1_7 - t_1_2 + 1000.000000 u_1_2_7 - 0.745848 s_1_2  + 0.745848 s_1_8  + 2000.000000 r_1_2_7 > 8.174467
s_2_7 + s_2_2 + 1000 r_2_2_7 >= 2
- s_2_7 - s_2_2 - 1000 r_2_2_7 >= -1001
t_2_7 - t_2_2 + 1000.000000 u_2_2_7 - 0.658575 s_2_2  + 0.658575 s_2_8  + 2000.000000 r_2_2_7 > 6.174929
s_1_7 + s_1_3 + 1000 r_1_3_7 >= 2
- s_1_7 - s_1_3 - 1000 r_1_3_7 >= -1001
t_1_7 - t_1_3 + 1000.000000 u_1_3_7 - 0.745848 s_1_3  + 0.745848 s_1_8  + 2000.000000 r_1_3_7 > 12.516900
s_2_7 + s_2_3 + 1000 r_2_3_7 >= 2
- s_2_7 - s_2_3 - 1000 r_2_3_7 >= -1001
t_2_7 - t_2_3 + 1000.000000 u_2_3_7 - 0.658575 s_2_3  + 0.658575 s_2_8  + 2000.000000 r_2_3_7 > 9.085737
s_1_7 + s_1_4 + 1000 r_1_4_7 >= 2
- s_1_7 - s_1_4 - 1000 r_1_4_7 >= -1001
t_1_7 - t_1_4 + 1000.000000 u_1_4_7 - 1.491697 s_1_4  + 0.745848 s_1_3  + 0.745848 s_1_8  + 2000.000000 r_1_4_7 > 6.336900
s_2_7 + s_2_4 + 1000 r_2_4_7 >= 2
- s_2_7 - s_2_4 - 1000 r_2_4_7 >= -1001
t_2_7 - t_2_4 + 1000.000000 u_2_4_7 - 1.317151 s_2_4  + 0.658575 s_2_3  + 0.658575 s_2_8  + 2000.000000 r_2_4_7 > 5.765342
s_1_7 + s_1_8 + 1000 r_1_7_8 >= 2
- s_1_7 - s_1_8 - 1000 r_1_7_8 >= -1001
t_1_7 - t_1_8 - 1000.000000 u_1_7_8 - 0.000000 s_1_8  + 2000.000000 r_1_7_8 > -982.993089
s_2_7 + s_2_8 + 1000 r_2_7_8 >= 2
- s_2_7 - s_2_8 - 1000 r_2_7_8 >= -1001
t_2_7 - t_2_8 - 1000.000000 u_2_7_8 - 0.000000 s_2_8  + 2000.000000 r_2_7_8 > -992.162100
s_1_8 + s_1_1 + 1000 r_1_1_8 >= 2
- s_1_8 - s_1_1 - 1000 r_1_1_8 >= -1001
t_1_8 - t_1_1 + 1000.000000 u_1_1_8 - 0.745848 s_1_1  + 0.745848 s_1_7  + 2000.000000 r_1_1_8 > 7.082767
s_2_8 + s_2_1 + 1000 r_2_1_8 >= 2
- s_2_8 - s_2_1 - 1000 r_2_1_8 >= -1001
t_2_8 - t_2_1 + 1000.000000 u_2_1_8 - 0.658575 s_2_1  + 0.658575 s_2_7  + 2000.000000 r_2_1_8 > 5.927206
s_1_8 + s_1_7 + 1000 r_1_7_8 >= 2
- s_1_8 - s_1_7 - 1000 r_1_7_8 >= -1001
t_1_8 - t_1_7 + 1000.000000 u_1_7_8 - 0.000000 s_1_7  + 2000.000000 r_1_7_8 > 16.951300
s_2_8 + s_2_7 + 1000 r_2_7_8 >= 2
- s_2_8 - s_2_7 - 1000 r_2_7_8 >= -1001
t_2_8 - t_2_7 + 1000.000000 u_2_7_8 - 0.000000 s_2_7  + 2000.000000 r_2_7_8 > 8.476175
Binary
s_1_1
s_2_1
s_1_2
s_2_2
s_1_3
s_2_3
s_1_4
s_2_4
s_1_5
s_2_5
s_1_6
s_2_6
s_1_7
s_2_7
s_1_8
s_2_8
u_1_1_2
r_1_1_2
u_2_1_2
r_2_1_2
u_1_1_3
r_1_1_3
u_2_1_3
r_2_1_3
u_1_1_4
r_1_1_4
u_2_1_4
r_2_1_4
u_1_1_5
r_1_1_5
u_2_1_5
r_2_1_5
u_1_1_8
r_1_1_8
u_2_1_8
r_2_1_8
u_1_2_3
r_1_2_3
u_2_2_3
r_2_2_3
u_1_2_4
r_1_2_4
u_2_2_4
r_2_2_4
u_1_2_5
r_1_2_5
u_2_2_5
r_2_2_5
u_1_2_7
r_1_2_7
u_2_2_7
r_2_2_7
u_1_3_5
r_1_3_5
u_2_3_5
r_2_3_5
u_1_3_7
r_1_3_7
u_2_3_7
r_2_3_7
u_1_4_5
r_1_4_5
u_2_4_5
r_2_4_5
u_1_4_7
r_1_4_7
u_2_4_7
r_2_4_7
u_1_7_8
r_1_7_8
u_2_7_8
r_2_7_8

End
